n = 50;
C = 245;
w = [287,296,26,277,311,280,123,185,90,31,214,4,409,477,314,128,287,500,234,469,489,265,51,491,423,409,171,27,289,422,153,157,64,95,495,341,106,99,186,482,33,87,118,22,89,495,359,469,173,273];
p = [35,83,218,2,165,333,412,414,188,463,382,322,497,250,444,157,7,327,276,122,5,114,161,402,220,275,19,477,163,113,116,486,49,14,182,226,139,200,451,21,115,367,168,141,10,233,215,253,419,225];
